Version identifier: 20.1.0.0 | 2020-11-10 | 9bedb6d68
CPXPARAM_Threads                                 1
CPXPARAM_TimeLimit                               7200
CPXPARAM_MIP_Tolerances_MIPGap                   0
Generic callback                                 0x60
1 of 1 MIP starts provided solutions.
MIP start 'm1' defined initial solution with objective 3563.5813.
Tried aggregator 1 time.
Reduced MIP has 801001 rows, 800801 columns, and 2400800 nonzeros.
Reduced MIP has 800 binaries, 0 generals, 0 SOSs, and 0 indicators.
Presolve time = 0.72 sec. (638.96 ticks)
Probing time = 0.10 sec. (100.03 ticks)
Tried aggregator 1 time.
Reduced MIP has 801001 rows, 800801 columns, and 2400800 nonzeros.
Reduced MIP has 800 binaries, 0 generals, 0 SOSs, and 0 indicators.
Presolve time = 0.71 sec. (625.98 ticks)
Probing time = 0.10 sec. (100.03 ticks)
MIP emphasis: balance optimality and feasibility.
MIP search method: dynamic search.
Parallel mode: none, using 1 thread.
Root relaxation solution time = 0.25 sec. (308.39 ticks)

        Nodes                                         Cuts/
   Node  Left     Objective  IInf  Best Integer    Best Bound    ItCnt     Gap

*     0+    0                         3563.5813     5432.0000            52.43%
      0     0     3683.3543     5     3563.5813     5432.0000        0   52.43%
      0     2     3683.3543     5     3563.5813     3683.3543        0    3.36%
Elapsed time = 5868.73 sec. (4803429.44 ticks, tree = 0.01 MB, solutions = 1)

User cuts applied:  3

Root node processing (before b&c):
  Real time             = 5868.67 sec. (4803389.59 ticks)
Sequential b&c:
  Real time             = 1331.56 sec. (764190.44 ticks)
                          ------------
Total (root+branch&cut) = 7200.23 sec. (5567580.03 ticks)
@Parameters: 
is_S_cut                                true
is_add_all_yinF                         true
is_start_value                          true
is_usercut                              true
is_visualization                        false
uc_only_rootnode                        false

data                                    Qi
fn                                      data/Qi/instance_1000_800.csv
mode                                    ZLP
solver                                  cplex

p                                       5
r                                       2

EPS                                     1.0e-06
EPS_vio                                 1.0e-04
beta                                    0.10
gap                                     0.00
nodelimit                               Inf
timelimit                               7200.00


@PrintInfos
ItCnt: 50854
Current gap: 3.36 %
Termination Status: TIME_LIMIT
Primal Status: FEASIBLE_POINT
Solve Time: 7200.23 sec
Objective Value: 3563.581345
Number of Nodes:      1

CutInfo: [phase] num / time (sec) 
ZLP             [phase1]     0 / 0.00 [rLC]     3 / 16.56 [rUC]     2 / 6.28 [sLC]     0 / 0.00 [sUC]     1 / 3.36 
OldSubmodular   [phase1]     0 / 0.00 [rLC]     0 / 0.00 [rUC]     0 / 0.00 [sLC]     0 / 0.00 [sUC]     0 / 0.00 
NewSubmodular   [phase1]     0 / 0.00 [rLC]     0 / 0.00 [rUC]     0 / 0.00 [sLC]     0 / 0.00 [sUC]     0 / 0.00 
PMP             [phase1]     0 / 0.00 [rLC]     4 / 12.18 [rUC]     2 / 4.27 [sLC]     0 / 0.00 [sUC]     1 / 2.14 
Separation Round: [phase1] 0  [rLC] 4  [rUC] 2  [sLC] 0  [sUC] 1
Root Best Bound 3683.354298
Root Best Integer: 3563.581345
Best Bound: 3683.354298
Best Integer: 3563.581345

